c 0	Sugar v2-3-3 + /usr/local/bin/clasp
c 0	BEGIN Sun Mar 10 02:57:07 2019
c 0	PID 13324
c 0	HOST okamoto-thinkpad-x1-carbon-5th
c 0	ENCODING csp/eagar_n5_1.csp TO /tmp/sugar13324.cnf
c 0	CMD java  -cp '/home/okamoto/sugar-v2-3-3/bin/sugar-v2-3-3.jar' jp.kobe_u.sugar.SugarMain -v -v -hybrid -option hy8  -encode 'csp/eagar_n5_1.csp' '/tmp/sugar13324.cnf' '/tmp/sugar13324.map'
c 0	Parsing csp/eagar_n5_1.csp
c 0	parsed 60 expressions
c 1	Heap : 0 MiB used (max 3952 MiB), NonHeap : 8 MiB used (max 0 MiB)
c 1	Converting to clausal form CSP
c 1	converted 6 (10%) expressions
c 1	converted 12 (20%) expressions
c 1	converted 18 (30%) expressions
c 1	converted 24 (40%) expressions
c 1	converted 30 (50%) expressions
c 1	converted 36 (60%) expressions
c 1	converted 42 (70%) expressions
c 1	converted 48 (80%) expressions
c 1	converted 54 (90%) expressions
c 1	converted 60 (100%) expressions
c 1	CSP : 16 integers, 54 booleans, 168 clauses, largest domain size 20
c 1	Heap : 0 MiB used (max 3952 MiB), NonHeap : 9 MiB used (max 0 MiB)
c 1	Propagation in CSP
c 1	0 values, 0 unsatisfiable literals, and 0 valid clauses are removed
c 1	CSP : 16 integers, 54 booleans, 168 clauses, largest domain size 20
c 1	Heap : 0 MiB used (max 3952 MiB), NonHeap : 9 MiB used (max 0 MiB)
c 1	Hybrid Encoding CSP to PB : /tmp/sugar13324.cnf
c 1	0 values, 0 unsatisfiable literals, and 0 valid clauses are removed
c 1	Hybrid 8 (by Domain Product 4096)
c 1	First classification of variables : Order=10 Log=6
c 1	0 values, 0 unsatisfiable literals, and 1 valid clauses are removed
c 1	Hybrid 8 (by Domain Product 4096)
c 1	Second classification of variables : Order=10 Log=6
c 1	CSP : 16 integers, 114 booleans, 227 clauses, largest domain size 20
c 1	Heap : 0 MiB used (max 3952 MiB), NonHeap : 9 MiB used (max 0 MiB)
c 1	Writing map file : /tmp/sugar13324.map
c 1	Heap : 1 MiB used (max 3952 MiB), NonHeap : 10 MiB used (max 0 MiB)
c 1	PB : 177 PB variables, 560 PB clauses, 17385 bytes
c 1	Heap : 1 MiB used (max 3952 MiB), NonHeap : 10 MiB used (max 0 MiB)
c 1	ENCODING CPU 0.44 (0.01 0 0.4 0.03)
c 1	SOLVING /tmp/sugar13324.cnf WITH /tmp/sugar13324.map
c 1	SAT SOLVING /tmp/sugar13324.cnf
c 1	CMD /usr/local/bin/clasp --stats '/tmp/sugar13324.cnf'
c 1	c clasp version 3.3.4
c 1	c Reading from /tmp/sugar13324.cnf
c 1	c Solving...
c 1	c Answer: 1
c 1	s SATISFIABLE
c 1	c 
c 1	c Models         : 1+
c 1	c Calls          : 1
c 1	c Time           : 0.005s (Solving: 0.00s 1st Model: 0.00s Unsat: 0.00s)
c 1	c CPU Time       : 0.005s
c 1	c 
c 1	c Choices        : 48      
c 1	c Conflicts      : 39       (Analyzed: 39)
c 1	c Restarts       : 0       
c 1	c Model-Level    : 5.0     
c 1	c Problems       : 1        (Average Length: 0.00 Splits: 0)
c 1	c Lemmas         : 39       (Deleted: 0)
c 1	c   Binary       : 5        (Ratio:  12.82%)
c 1	c   Ternary      : 8        (Ratio:  20.51%)
c 1	c   Conflict     : 39       (Average Length:    4.4 Ratio: 100.00%) 
c 1	c   Loop         : 0        (Average Length:    0.0 Ratio:   0.00%) 
c 1	c   Other        : 0        (Average Length:    0.0 Ratio:   0.00%) 
c 1	c Backjumps      : 39       (Average:  1.10 Max:   2 Sum:     43)
c 1	c   Executed     : 39       (Average:  1.10 Max:   2 Sum:     43 Ratio: 100.00%)
c 1	c   Bounded      : 0        (Average:  0.00 Max:   0 Sum:      0 Ratio:   0.00%)
c 1	c 
c 1	c Variables      : 177      (Eliminated:   77 Frozen:   43)
c 1	c Constraints    : 420      (Binary:  20.7% Ternary:  39.0% Other:  40.2%)
c 1	c 
c 1	DECODING /tmp/sugar13324.out WITH /tmp/sugar13324.map
c 1	CMD java  -cp '/home/okamoto/sugar-v2-3-3/bin/sugar-v2-3-3.jar' jp.kobe_u.sugar.SugarMain -v -v -hybrid -option hy8  -decode '/tmp/sugar13324.out' '/tmp/sugar13324.map'
c 1	Decoding /tmp/sugar13324.out
s SATISFIABLE
a x_0	1
a x_1	2
a x_2	3
a x_3	4
a x_4	0
a d-0	10
a d-1	10
a d-2	10
a d-3	10
a d-4	10
a o_0	0
a o_1	1
a o_2	2
a o_3	3
a o_4	4
a distance	50
a
c 1	Heap : 2 MiB used (max 3952 MiB), NonHeap : 9 MiB used (max 0 MiB)
c 1	DECODING CPU 0.24 (0 0 0.22 0.02)
c 1	SOLVING CPU 0.26 (0 0 0.23 0.03)
c 1	CPU 0.71 (0.02 0 0.63 0.06)
c 1	END Sun Mar 10 02:57:08 2019
